NAME : POMORSKIE-n10
COMMENT : Auto generated by mgrVRP
TYPE : CVRP
DIMENSION : 10
EDGE_WEIGHT_TYPE : EUC_2D
CAPACITY : 200.0
NODE_COORD_SECTION
1 54.55044889872358 17.229566563780757
2 54.11783227821487 17.08990156678114
3 53.73715956759718 17.27050491700942
4 53.77640992261457 19.364609784038485
5 54.63272022958898 17.52928687168022
6 53.83545570011449 19.329728160644553
7 54.32814376739666 17.725274181037648
8 53.9957157595871 17.262245997276587
9 53.741113811303876 19.236811608464237
10 54.02439211538754 18.06950530032524
11 53.76551071949628 19.25830133373171
DEMAND_SECTION
1 0
2 38.0
3 35.0
4 37.0
5 40.0
6 48.0
7 33.0
8 46.0
9 52.0
10 47.0
11 58.0
DEPOT_SECTION
1
-1
EOF
